Results from ./Held-Karp_algorithm w/ input file: a5.tsp:
NAME : a5
COMMENT : drilling problem (Ludwig)
TYPE : TSP
DIMENSION: 5
EDGE_WEIGHT_TYPE : EUC_2D
NODE_COORD_SECTION
min dist: 103.548

1
5
4
3
2
1
Execution time: 0(ms)
adj matrix time: 0(ms)
TSP algorithm time: 0(ms)
	Command being timed: "./Held-Karp_algorithm ./dataset/a5.tsp ./opt/a280.opt.tour"
	User time (seconds): 0.00
	System time (seconds): 0.00
	Percent of CPU this job got: 50%
	Elapsed (wall clock) time (h:mm:ss or m:ss): 0:00.00
	Average shared text size (kbytes): 0
	Average unshared data size (kbytes): 0
	Average stack size (kbytes): 0
	Average total size (kbytes): 0
	Maximum resident set size (kbytes): 3884
	Average resident set size (kbytes): 0
	Major (requiring I/O) page faults: 3
	Minor (reclaiming a frame) page faults: 145
	Voluntary context switches: 6
	Involuntary context switches: 0
	Swaps: 0
	File system inputs: 784
	File system outputs: 0
	Socket messages sent: 0
	Socket messages received: 0
	Signals delivered: 0
	Page size (bytes): 4096
	Exit status: 0
------------------------------------
Results from ./Held-Karp_algorithm w/ input file: a25.tsp:
NAME : a25
COMMENT : drilling problem (Ludwig)
TYPE : TSP
DIMENSION: 25
EDGE_WEIGHT_TYPE : EUC_2D
NODE_COORD_SECTION
min dist: 358.765

1
5
6
7
8
10
11
12
13
14
24
23
25
22
21
20
19
18
17
16
15
9
4
3
2
1
Execution time: 23528(ms)
adj matrix time: 0(ms)
TSP algorithm time: 23528(ms)
	Command being timed: "./Held-Karp_algorithm ./dataset/a25.tsp ./opt/a280.opt.tour"
	User time (seconds): 22.94
	System time (seconds): 1.07
	Percent of CPU this job got: 100%
	Elapsed (wall clock) time (h:mm:ss or m:ss): 0:23.92
	Average shared text size (kbytes): 0
	Average unshared data size (kbytes): 0
	Average stack size (kbytes): 0
	Average total size (kbytes): 0
	Maximum resident set size (kbytes): 3935460
	Average resident set size (kbytes): 0
	Major (requiring I/O) page faults: 0
	Minor (reclaiming a frame) page faults: 918291
	Voluntary context switches: 3
	Involuntary context switches: 9
	Swaps: 0
	File system inputs: 272
	File system outputs: 0
	Socket messages sent: 0
	Socket messages received: 0
	Signals delivered: 0
	Page size (bytes): 4096
	Exit status: 0
------------------------------------
Results from ./Held-Karp_algorithm w/ input file: a100.tsp:
NAME : a100
COMMENT : drilling problem (Ludwig)
TYPE : TSP
DIMENSION: 100
EDGE_WEIGHT_TYPE : EUC_2D
NODE_COORD_SECTION
Command terminated by signal 11
	Command being timed: "./Held-Karp_algorithm ./dataset/a100.tsp ./opt/a280.opt.tour"
	User time (seconds): 0.00
	System time (seconds): 0.00
	Percent of CPU this job got: 50%
	Elapsed (wall clock) time (h:mm:ss or m:ss): 0:00.00
	Average shared text size (kbytes): 0
	Average unshared data size (kbytes): 0
	Average stack size (kbytes): 0
	Average total size (kbytes): 0
	Maximum resident set size (kbytes): 3592
	Average resident set size (kbytes): 0
	Major (requiring I/O) page faults: 0
	Minor (reclaiming a frame) page faults: 152
	Voluntary context switches: 2
	Involuntary context switches: 0
	Swaps: 0
	File system inputs: 8
	File system outputs: 0
	Socket messages sent: 0
	Socket messages received: 0
	Signals delivered: 0
	Page size (bytes): 4096
	Exit status: 0
Error running program: ./Held-Karp_algorithm
------------------------------------
Results from ./Held-Karp_algorithm w/ input file: a280.tsp:
NAME : a280
COMMENT : drilling problem (Ludwig)
TYPE : TSP
DIMENSION: 280
EDGE_WEIGHT_TYPE : EUC_2D
NODE_COORD_SECTION
Command terminated by signal 9
	Command being timed: "./Held-Karp_algorithm ./dataset/a280.tsp ./opt/a280.opt.tour"
	User time (seconds): 0.81
	System time (seconds): 2.98
	Percent of CPU this job got: 99%
	Elapsed (wall clock) time (h:mm:ss or m:ss): 0:03.80
	Average shared text size (kbytes): 0
	Average unshared data size (kbytes): 0
	Average stack size (kbytes): 0
	Average total size (kbytes): 0
	Maximum resident set size (kbytes): 7041824
	Average resident set size (kbytes): 0
	Major (requiring I/O) page faults: 3
	Minor (reclaiming a frame) page faults: 1855080
	Voluntary context switches: 375
	Involuntary context switches: 201
	Swaps: 0
	File system inputs: 672
	File system outputs: 0
	Socket messages sent: 0
	Socket messages received: 0
	Signals delivered: 0
	Page size (bytes): 4096
	Exit status: 0
Error running program: ./Held-Karp_algorithm
------------------------------------
